(set-logic UFDT)
(declare-datatypes ((nat 0)) (((zero) (s (s0 nat)))))
(declare-fun add (nat nat) nat)
(non-erasing add 2)
(injective add (true true))
(declare-fun leq (nat nat) Bool)
(assert (forall ((y nat)) (= (add zero y) y)))
(assert (forall ((x nat) (y nat)) (= (add (s x) y) (s (add x y)))))
(assert (forall ((y nat)) (leq zero y)))
(assert (forall ((x nat)) (not (leq (s x) zero))))
(assert (forall ((x nat) (y nat)) (= (leq (s x) (s y)) (leq x y))))
(assert (not (forall ((v0 nat) (v1 nat) (v2 nat) (v3 nat) (v4 nat)) (= (add (add (s (add (s (add (s v3) v3)) (add (add v0 (s v1)) v2))) (s (s (s (add (s v4) v3))))) (s (s zero))) (add (add (s (s (add zero (add (add v0 (s (s v3))) (s (add v4 (s v1))))))) (s (s (s (add v3 v3))))) (s v2))))))
(check-sat)
